% seed = 7718463

mint = 50;
% maxt = 120;

nActs = 22;
dur = [0,3,7,7,10,3,1,6,10,8,7,8,8,3,1,3,8,10,2,8,7,0];

nSkills = 4;
sreq = [| 0,0,0,0,
	| 2,0,3,0,
	| 1,3,3,0,
	| 2,2,3,2,
	| 1,1,2,2,
	| 3,0,1,3,
	| 0,0,3,3,
	| 1,1,0,3,
	| 1,1,3,1,
	| 2,1,1,1,
	| 0,3,2,0,
	| 0,2,0,3,
	| 3,3,0,0,
	| 0,1,0,2,
	| 3,0,1,0,
	| 1,2,2,1,
	| 1,0,2,2,
	| 1,2,3,2,
	| 2,1,3,2,
	| 3,1,0,3,
	| 2,2,1,2,
	| 0,0,0,0, |];

nResources = 25;
mastery = [| false,true,true,false,
	| true,true,true,false,
	| true,true,false,true,
	| true,false,true,false,
	| false,true,false,true,
	| false,true,true,false,
	| false,true,true,true,
	| false,false,false,true,
	| true,true,false,true,
	| false,true,false,false,
	| false,true,true,true,
	| true,false,true,true,
	| false,true,true,true,
	| true,false,false,true,
	| true,true,false,true,
	| false,true,false,true,
	| false,false,true,true,
	| true,true,true,false,
	| true,true,false,true,
	| false,true,true,false,
	| true,false,false,false,
	| true,true,true,false,
	| false,false,true,false,
	| false,false,true,false,
	| false,true,true,false, |];

nPrecs = 43;
pred = [1,1,1,2,2,2,3,3,3,4,4,4,5,5,6,6,7,7,7,8,8,8,9,9,10,11,11,12,12,13,14,14,15,15,15,16,16,17,18,18,19,20,21];
succ = [2,3,4,5,6,7,11,15,16,10,13,14,9,12,20,13,16,14,8,10,11,13,10,16,15,18,12,17,20,21,17,19,17,18,19,18,19,21,20,21,22,22,22];

nUnrels = 81;
unpred = [2,2,3,3,3,3,3,3,3,3,3,4,4,4,4,4,4,4,4,5,5,5,5,5,5,6,6,6,6,6,6,6,6,6,6,6,6,7,8,8,8,9,9,9,9,10,10,10,10,10,11,11,11,11,11,12,12,12,12,12,12,13,13,13,13,13,13,13,14,14,14,14,15,16,17,17,17,18,19,19,20];
unsucc = [3,4,4,5,6,7,8,9,10,13,14,5,6,7,8,9,11,12,16,6,7,8,11,13,14,7,8,9,10,11,12,14,15,16,17,18,19,9,9,14,16,11,12,13,14,11,12,13,14,16,13,14,15,16,19,13,14,15,16,18,19,14,15,16,17,18,19,20,15,16,18,20,16,17,18,19,20,19,20,21,21];

USEFUL_RES = [{},
	{1,2,3,4,6,7,9,11,12,13,14,15,17,18,19,20,21,22,23,24,25},
	{1,2,3,4,5,6,7,9,10,11,12,13,14,15,16,17,18,19,20,21,22,23,24,25},
	{1,2,3,4,5,6,7,8,9,10,11,12,13,14,15,16,17,18,19,20,21,22,23,24,25},
	{1,2,3,4,5,6,7,8,9,10,11,12,13,14,15,16,17,18,19,20,21,22,23,24,25},
	{1,2,3,4,5,6,7,8,9,11,12,13,14,15,16,17,18,19,20,21,22,23,24,25},
	{1,2,3,4,5,6,7,8,9,11,12,13,14,15,16,17,18,19,20,22,23,24,25},
	{1,2,3,4,5,6,7,8,9,10,11,12,13,14,15,16,17,18,19,20,21,22,25},
	{1,2,3,4,5,6,7,8,9,10,11,12,13,14,15,16,17,18,19,20,21,22,23,24,25},
	{1,2,3,4,5,6,7,8,9,10,11,12,13,14,15,16,17,18,19,20,21,22,23,24,25},
	{1,2,3,4,5,6,7,9,10,11,12,13,15,16,17,18,19,20,22,23,24,25},
	{1,2,3,5,6,7,8,9,10,11,12,13,14,15,16,17,18,19,20,22,25},
	{1,2,3,4,5,6,7,9,10,11,12,13,14,15,16,18,19,20,21,22,25},
	{1,2,3,5,6,7,8,9,10,11,12,13,14,15,16,17,18,19,20,22,25},
	{1,2,3,4,6,7,9,11,12,13,14,15,17,18,19,20,21,22,23,24,25},
	{1,2,3,4,5,6,7,8,9,10,11,12,13,14,15,16,17,18,19,20,21,22,23,24,25},
	{1,2,3,4,5,6,7,8,9,11,12,13,14,15,16,17,18,19,20,21,22,23,24,25},
	{1,2,3,4,5,6,7,8,9,10,11,12,13,14,15,16,17,18,19,20,21,22,23,24,25},
	{1,2,3,4,5,6,7,8,9,10,11,12,13,14,15,16,17,18,19,20,21,22,23,24,25},
	{1,2,3,4,5,6,7,8,9,10,11,12,13,14,15,16,17,18,19,20,21,22,25},
	{1,2,3,4,5,6,7,8,9,10,11,12,13,14,15,16,17,18,19,20,21,22,23,24,25},
	{}];

POTENTIAL_ACT = [{2,3,4,5,6,7,8,9,10,11,12,13,14,15,16,17,18,19,20,21},
	{2,3,4,5,6,7,8,9,10,11,12,13,14,15,16,17,18,19,20,21},
	{2,3,4,5,6,7,8,9,10,11,12,13,14,15,16,17,18,19,20,21},
	{2,3,4,5,6,7,8,9,10,11,13,15,16,17,18,19,20,21},
	{3,4,5,6,7,8,9,10,11,12,13,14,16,17,18,19,20,21},
	{2,3,4,5,6,7,8,9,10,11,12,13,14,15,16,17,18,19,20,21},
	{2,3,4,5,6,7,8,9,10,11,12,13,14,15,16,17,18,19,20,21},
	{4,5,6,7,8,9,10,12,14,16,17,18,19,20,21},
	{2,3,4,5,6,7,8,9,10,11,12,13,14,15,16,17,18,19,20,21},
	{3,4,5,8,9,10,11,12,13,14,16,18,19,20,21},
	{2,3,4,5,6,7,8,9,10,11,12,13,14,15,16,17,18,19,20,21},
	{2,3,4,5,6,7,8,9,10,11,12,13,14,15,16,17,18,19,20,21},
	{2,3,4,5,6,7,8,9,10,11,12,13,14,15,16,17,18,19,20,21},
	{2,3,4,5,6,7,8,9,10,12,13,14,15,16,17,18,19,20,21},
	{2,3,4,5,6,7,8,9,10,11,12,13,14,15,16,17,18,19,20,21},
	{3,4,5,6,7,8,9,10,11,12,13,14,16,17,18,19,20,21},
	{2,3,4,5,6,7,8,9,10,11,12,14,15,16,17,18,19,20,21},
	{2,3,4,5,6,7,8,9,10,11,12,13,14,15,16,17,18,19,20,21},
	{2,3,4,5,6,7,8,9,10,11,12,13,14,15,16,17,18,19,20,21},
	{2,3,4,5,6,7,8,9,10,11,12,13,14,15,16,17,18,19,20,21},
	{2,3,4,5,6,8,9,10,13,15,16,17,18,19,20,21},
	{2,3,4,5,6,7,8,9,10,11,12,13,14,15,16,17,18,19,20,21},
	{2,3,4,5,6,7,9,10,11,15,16,17,18,19,21},
	{2,3,4,5,6,7,9,10,11,15,16,17,18,19,21},
	{2,3,4,5,6,7,8,9,10,11,12,13,14,15,16,17,18,19,20,21}];
